100 4950
1 2 3
1 3 2
1 4 4
1 5 3
1 6 2
1 7 1
1 8 2
1 9 3
1 10 1
1 11 3
1 12 2
1 13 2
1 14 2
1 15 2
1 16 2
1 17 1
1 18 4
1 19 1
1 20 1
1 21 5
1 22 5
1 23 4
1 24 1
1 25 3
1 26 4
1 27 2
1 28 5
1 29 3
1 30 2
1 31 5
1 32 3
1 33 2
1 34 3
1 35 2
1 36 3
1 37 3
1 38 2
1 39 1
1 40 2
1 41 3
1 42 1
1 43 1
1 44 4
1 45 4
1 46 2
1 47 1
1 48 2
1 49 2
1 50 2
1 51 2
1 52 3
1 53 5
1 54 3
1 55 3
1 56 2
1 57 4
1 58 1
1 59 5
1 60 2
1 61 1
1 62 1
1 63 3
1 64 4
1 65 4
1 66 5
1 67 3
1 68 4
1 69 2
1 70 2
1 71 1
1 72 1
1 73 4
1 74 3
1 75 5
1 76 4
1 77 3
1 78 1
1 79 3
1 80 2
1 81 4
1 82 3
1 83 4
1 84 2
1 85 4
1 86 3
1 87 1
1 88 4
1 89 5
1 90 5
1 91 4
1 92 2
1 93 2
1 94 5
1 95 2
1 96 1
1 97 5
1 98 1
1 99 2
1 100 3
2 3 5
2 4 2
2 5 1
2 6 5
2 7 2
2 8 1
2 9 2
2 10 4
2 11 1
2 12 5
2 13 4
2 14 4
2 15 1
2 16 1
2 17 4
2 18 1
2 19 2
2 20 4
2 21 1
2 22 1
2 23 3
2 24 2
2 25 4
2 26 5
2 27 1
2 28 1
2 29 2
2 30 4
2 31 2
2 32 2
2 33 1
2 34 4
2 35 2
2 36 3
2 37 4
2 38 3
2 39 3
2 40 3
2 41 3
2 42 4
2 43 3
2 44 3
2 45 5
2 46 1
2 47 3
2 48 4
2 49 4
2 50 1
2 51 2
2 52 3
2 53 1
2 54 2
2 55 3
2 56 4
2 57 3
2 58 2
2 59 2
2 60 2
2 61 2
2 62 3
2 63 5
2 64 2
2 65 1
2 66 3
2 67 4
2 68 4
2 69 4
2 70 1
2 71 5
2 72 5
2 73 5
2 74 4
2 75 2
2 76 1
2 77 5
2 78 2
2 79 1
2 80 5
2 81 1
2 82 4
2 83 5
2 84 4
2 85 3
2 86 2
2 87 2
2 88 1
2 89 2
2 90 2
2 91 5
2 92 2
2 93 3
2 94 5
2 95 2
2 96 1
2 97 5
2 98 4
2 99 2
2 100 3
3 4 4
3 5 4
3 6 3
3 7 4
3 8 4
3 9 4
3 10 4
3 11 1
3 12 2
3 13 4
3 14 2
3 15 2
3 16 1
3 17 4
3 18 3
3 19 5
3 20 4
3 21 1
3 22 1
3 23 1
3 24 4
3 25 5
3 26 1
3 27 4
3 28 3
3 29 1
3 30 5
3 31 1
3 32 2
3 33 5
3 34 1
3 35 3
3 36 5
3 37 3
3 38 5
3 39 3
3 40 2
3 41 2
3 42 4
3 43 4
3 44 5
3 45 4
3 46 1
3 47 1
3 48 2
3 49 5
3 50 3
3 51 1
3 52 1
3 53 1
3 54 5
3 55 3
3 56 2
3 57 2
3 58 2
3 59 5
3 60 1
3 61 3
3 62 1
3 63 2
3 64 2
3 65 5
3 66 4
3 67 5
3 68 3
3 69 1
3 70 1
3 71 4
3 72 4
3 73 2
3 74 4
3 75 4
3 76 2
3 77 2
3 78 1
3 79 3
3 80 3
3 81 2
3 82 4
3 83 4
3 84 1
3 85 3
3 86 1
3 87 1
3 88 3
3 89 2
3 90 4
3 91 2
3 92 5
3 93 4
3 94 5
3 95 3
3 96 3
3 97 1
3 98 3
3 99 3
3 100 2
4 5 5
4 6 5
4 7 1
4 8 3
4 9 4
4 10 4
4 11 4
4 12 5
4 13 5
4 14 3
4 15 3
4 16 3
4 17 3
4 18 1
4 19 1
4 20 4
4 21 1
4 22 1
4 23 2
4 24 2
4 25 3
4 26 3
4 27 5
4 28 4
4 29 3
4 30 3
4 31 4
4 32 1
4 33 2
4 34 2
4 35 4
4 36 4
4 37 3
4 38 4
4 39 2
4 40 4
4 41 3
4 42 4
4 43 3
4 44 4
4 45 2
4 46 2
4 47 4
4 48 1
4 49 2
4 50 2
4 51 4
4 52 2
4 53 4
4 54 4
4 55 2
4 56 5
4 57 2
4 58 1
4 59 4
4 60 2
4 61 3
4 62 3
4 63 4
4 64 1
4 65 2
4 66 2
4 67 3
4 68 4
4 69 5
4 70 5
4 71 2
4 72 3
4 73 3
4 74 4
4 75 4
4 76 3
4 77 4
4 78 1
4 79 4
4 80 5
4 81 4
4 82 2
4 83 4
4 84 2
4 85 5
4 86 4
4 87 4
4 88 1
4 89 4
4 90 1
4 91 3
4 92 5
4 93 2
4 94 2
4 95 3
4 96 5
4 97 2
4 98 3
4 99 5
4 100 4
5 6 5
5 7 2
5 8 4
5 9 3
5 10 2
5 11 2
5 12 3
5 13 1
5 14 3
5 15 3
5 16 4
5 17 5
5 18 1
5 19 3
5 20 3
5 21 4
5 22 4
5 23 4
5 24 1
5 25 2
5 26 2
5 27 1
5 28 2
5 29 4
5 30 5
5 31 2
5 32 3
5 33 4
5 34 3
5 35 5
5 36 1
5 37 2
5 38 4
5 39 3
5 40 1
5 41 4
5 42 1
5 43 2
5 44 1
5 45 1
5 46 2
5 47 3
5 48 3
5 49 3
5 50 4
5 51 3
5 52 5
5 53 3
5 54 1
5 55 5
5 56 5
5 57 5
5 58 3
5 59 4
5 60 5
5 61 5
5 62 3
5 63 4
5 64 2
5 65 5
5 66 4
5 67 3
5 68 2
5 69 5
5 70 3
5 71 5
5 72 3
5 73 1
5 74 4
5 75 1
5 76 3
5 77 1
5 78 1
5 79 5
5 80 5
5 81 3
5 82 3
5 83 2
5 84 3
5 85 5
5 86 2
5 87 3
5 88 3
5 89 1
5 90 1
5 91 5
5 92 1
5 93 3
5 94 4
5 95 1
5 96 5
5 97 5
5 98 1
5 99 4
5 100 3
6 7 5
6 8 5
6 9 1
6 10 3
6 11 3
6 12 5
6 13 3
6 14 1
6 15 2
6 16 3
6 17 2
6 18 2
6 19 5
6 20 1
6 21 1
6 22 4
6 23 3
6 24 3
6 25 4
6 26 4
6 27 2
6 28 3
6 29 5
6 30 4
6 31 1
6 32 5
6 33 4
6 34 1
6 35 1
6 36 4
6 37 3
6 38 3
6 39 1
6 40 5
6 41 4
6 42 3
6 43 1
6 44 4
6 45 1
6 46 2
6 47 3
6 48 5
6 49 2
6 50 2
6 51 2
6 52 5
6 53 1
6 54 2
6 55 3
6 56 2
6 57 4
6 58 3
6 59 3
6 60 4
6 61 1
6 62 3
6 63 5
6 64 2
6 65 2
6 66 4
6 67 2
6 68 5
6 69 3
6 70 3
6 71 3
6 72 3
6 73 2
6 74 1
6 75 4
6 76 1
6 77 2
6 78 3
6 79 1
6 80 1
6 81 3
6 82 1
6 83 3
6 84 4
6 85 2
6 86 1
6 87 5
6 88 5
6 89 5
6 90 5
6 91 2
6 92 1
6 93 5
6 94 1
6 95 5
6 96 1
6 97 2
6 98 2
6 99 1
6 100 3
7 8 1
7 9 5
7 10 4
7 11 5
7 12 5
7 13 1
7 14 3
7 15 1
7 16 5
7 17 2
7 18 1
7 19 4
7 20 1
7 21 5
7 22 2
7 23 1
7 24 5
7 25 5
7 26 4
7 27 2
7 28 3
7 29 5
7 30 1
7 31 1
7 32 4
7 33 1
7 34 4
7 35 2
7 36 4
7 37 3
7 38 1
7 39 4
7 40 1
7 41 1
7 42 5
7 43 2
7 44 2
7 45 1
7 46 4
7 47 5
7 48 4
7 49 4
7 50 5
7 51 2
7 52 2
7 53 2
7 54 4
7 55 1
7 56 5
7 57 2
7 58 2
7 59 3
7 60 1
7 61 2
7 62 2
7 63 4
7 64 4
7 65 2
7 66 3
7 67 3
7 68 3
7 69 3
7 70 3
7 71 1
7 72 2
7 73 4
7 74 4
7 75 3
7 76 3
7 77 3
7 78 4
7 79 1
7 80 3
7 81 1
7 82 5
7 83 4
7 84 1
7 85 1
7 86 5
7 87 4
7 88 4
7 89 5
7 90 2
7 91 3
7 92 5
7 93 3
7 94 1
7 95 5
7 96 4
7 97 5
7 98 5
7 99 5
7 100 3
8 9 2
8 10 3
8 11 5
8 12 2
8 13 2
8 14 1
8 15 2
8 16 1
8 17 2
8 18 4
8 19 3
8 20 4
8 21 5
8 22 5
8 23 1
8 24 3
8 25 1
8 26 5
8 27 4
8 28 3
8 29 1
8 30 4
8 31 3
8 32 4
8 33 4
8 34 4
8 35 2
8 36 2
8 37 4
8 38 4
8 39 3
8 40 2
8 41 5
8 42 4
8 43 4
8 44 1
8 45 1
8 46 3
8 47 5
8 48 4
8 49 1
8 50 2
8 51 1
8 52 4
8 53 1
8 54 4
8 55 5
8 56 2
8 57 5
8 58 5
8 59 2
8 60 4
8 61 1
8 62 1
8 63 4
8 64 5
8 65 5
8 66 5
8 67 4
8 68 3
8 69 5
8 70 2
8 71 1
8 72 2
8 73 4
8 74 5
8 75 5
8 76 1
8 77 5
8 78 1
8 79 3
8 80 5
8 81 5
8 82 2
8 83 4
8 84 2
8 85 5
8 86 5
8 87 2
8 88 5
8 89 3
8 90 5
8 91 5
8 92 4
8 93 4
8 94 3
8 95 5
8 96 2
8 97 3
8 98 3
8 99 4
8 100 3
9 10 3
9 11 2
9 12 2
9 13 1
9 14 5
9 15 1
9 16 1
9 17 5
9 18 5
9 19 2
9 20 5
9 21 5
9 22 3
9 23 1
9 24 1
9 25 2
9 26 1
9 27 4
9 28 4
9 29 1
9 30 1
9 31 2
9 32 1
9 33 2
9 34 4
9 35 2
9 36 3
9 37 3
9 38 2
9 39 3
9 40 1
9 41 3
9 42 1
9 43 5
9 44 3
9 45 2
9 46 5
9 47 4
9 48 1
9 49 4
9 50 4
9 51 1
9 52 1
9 53 2
9 54 4
9 55 2
9 56 1
9 57 4
9 58 3
9 59 4
9 60 3
9 61 4
9 62 4
9 63 3
9 64 4
9 65 1
9 66 5
9 67 5
9 68 4
9 69 2
9 70 3
9 71 2
9 72 4
9 73 5
9 74 4
9 75 1
9 76 4
9 77 1
9 78 4
9 79 5
9 80 2
9 81 4
9 82 1
9 83 4
9 84 4
9 85 4
9 86 2
9 87 4
9 88 4
9 89 4
9 90 4
9 91 1
9 92 5
9 93 5
9 94 3
9 95 3
9 96 3
9 97 3
9 98 1
9 99 1
9 100 3
10 11 2
10 12 1
10 13 5
10 14 3
10 15 4
10 16 4
10 17 4
10 18 1
10 19 5
10 20 2
10 21 4
10 22 1
10 23 4
10 24 2
10 25 5
10 26 5
10 27 4
10 28 5
10 29 5
10 30 1
10 31 2
10 32 3
10 33 1
10 34 5
10 35 3
10 36 4
10 37 2
10 38 3
10 39 5
10 40 5
10 41 4
10 42 5
10 43 5
10 44 1
10 45 3
10 46 2
10 47 1
10 48 2
10 49 3
10 50 2
10 51 4
10 52 3
10 53 3
10 54 1
10 55 5
10 56 4
10 57 2
10 58 5
10 59 2
10 60 2
10 61 1
10 62 5
10 63 5
10 64 2
10 65 2
10 66 2
10 67 4
10 68 1
10 69 3
10 70 1
10 71 5
10 72 3
10 73 5
10 74 2
10 75 4
10 76 5
10 77 3
10 78 4
10 79 5
10 80 1
10 81 1
10 82 1
10 83 4
10 84 2
10 85 3
10 86 4
10 87 4
10 88 1
10 89 2
10 90 4
10 91 1
10 92 4
10 93 1
10 94 1
10 95 5
10 96 3
10 97 4
10 98 3
10 99 3
10 100 5
11 12 4
11 13 4
11 14 5
11 15 3
11 16 1
11 17 4
11 18 5
11 19 2
11 20 3
11 21 4
11 22 3
11 23 2
11 24 4
11 25 2
11 26 2
11 27 4
11 28 1
11 29 2
11 30 2
11 31 5
11 32 3
11 33 5
11 34 1
11 35 5
11 36 1
11 37 1
11 38 1
11 39 1
11 40 4
11 41 2
11 42 3
11 43 5
11 44 1
11 45 3
11 46 4
11 47 5
11 48 2
11 49 5
11 50 3
11 51 5
11 52 5
11 53 1
11 54 5
11 55 3
11 56 5
11 57 4
11 58 1
11 59 1
11 60 4
11 61 2
11 62 1
11 63 5
11 64 3
11 65 1
11 66 2
11 67 3
11 68 5
11 69 3
11 70 1
11 71 1
11 72 1
11 73 3
11 74 5
11 75 3
11 76 2
11 77 1
11 78 4
11 79 3
11 80 3
11 81 2
11 82 3
11 83 4
11 84 5
11 85 2
11 86 1
11 87 2
11 88 2
11 89 4
11 90 5
11 91 1
11 92 2
11 93 1
11 94 4
11 95 1
11 96 5
11 97 4
11 98 5
11 99 4
11 100 2
12 13 2
12 14 4
12 15 2
12 16 3
12 17 2
12 18 4
12 19 4
12 20 5
12 21 2
12 22 2
12 23 1
12 24 2
12 25 2
12 26 1
12 27 1
12 28 3
12 29 2
12 30 2
12 31 4
12 32 4
12 33 3
12 34 5
12 35 5
12 36 1
12 37 1
12 38 5
12 39 4
12 40 4
12 41 2
12 42 4
12 43 4
12 44 5
12 45 5
12 46 5
12 47 4
12 48 3
12 49 1
12 50 1
12 51 3
12 52 1
12 53 2
12 54 2
12 55 3
12 56 4
12 57 2
12 58 2
12 59 1
12 60 4
12 61 2
12 62 2
12 63 4
12 64 4
12 65 5
12 66 3
12 67 4
12 68 3
12 69 1
12 70 3
12 71 2
12 72 2
12 73 2
12 74 1
12 75 5
12 76 1
12 77 5
12 78 3
12 79 1
12 80 5
12 81 3
12 82 5
12 83 3
12 84 1
12 85 4
12 86 3
12 87 1
12 88 5
12 89 1
12 90 4
12 91 2
12 92 5
12 93 4
12 94 5
12 95 2
12 96 1
12 97 1
12 98 4
12 99 2
12 100 3
13 14 3
13 15 4
13 16 2
13 17 4
13 18 4
13 19 2
13 20 1
13 21 5
13 22 4
13 23 5
13 24 5
13 25 4
13 26 1
13 27 3
13 28 4
13 29 1
13 30 5
13 31 1
13 32 3
13 33 2
13 34 5
13 35 4
13 36 5
13 37 1
13 38 1
13 39 5
13 40 2
13 41 3
13 42 3
13 43 5
13 44 3
13 45 4
13 46 3
13 47 3
13 48 3
13 49 3
13 50 4
13 51 1
13 52 2
13 53 4
13 54 4
13 55 2
13 56 5
13 57 2
13 58 1
13 59 2
13 60 3
13 61 2
13 62 2
13 63 3
13 64 5
13 65 5
13 66 5
13 67 5
13 68 3
13 69 4
13 70 3
13 71 5
13 72 4
13 73 1
13 74 5
13 75 4
13 76 2
13 77 5
13 78 5
13 79 2
13 80 1
13 81 1
13 82 5
13 83 5
13 84 1
13 85 1
13 86 4
13 87 5
13 88 3
13 89 5
13 90 3
13 91 2
13 92 5
13 93 3
13 94 4
13 95 2
13 96 3
13 97 2
13 98 1
13 99 5
13 100 2
14 15 3
14 16 4
14 17 3
14 18 4
14 19 3
14 20 5
14 21 5
14 22 1
14 23 2
14 24 4
14 25 2
14 26 4
14 27 4
14 28 2
14 29 2
14 30 1
14 31 1
14 32 4
14 33 5
14 34 2
14 35 1
14 36 2
14 37 1
14 38 5
14 39 3
14 40 2
14 41 5
14 42 4
14 43 2
14 44 5
14 45 3
14 46 2
14 47 3
14 48 1
14 49 2
14 50 1
14 51 4
14 52 2
14 53 2
14 54 5
14 55 1
14 56 4
14 57 4
14 58 1
14 59 3
14 60 5
14 61 4
14 62 4
14 63 3
14 64 5
14 65 4
14 66 1
14 67 3
14 68 4
14 69 5
14 70 4
14 71 3
14 72 3
14 73 5
14 74 3
14 75 4
14 76 2
14 77 5
14 78 1
14 79 3
14 80 5
14 81 5
14 82 2
14 83 2
14 84 1
14 85 3
14 86 3
14 87 5
14 88 4
14 89 2
14 90 2
14 91 2
14 92 4
14 93 4
14 94 2
14 95 5
14 96 3
14 97 1
14 98 5
14 99 5
14 100 1
15 16 5
15 17 4
15 18 5
15 19 1
15 20 1
15 21 5
15 22 1
15 23 3
15 24 4
15 25 1
15 26 4
15 27 4
15 28 2
15 29 1
15 30 5
15 31 5
15 32 4
15 33 1
15 34 5
15 35 4
15 36 4
15 37 3
15 38 1
15 39 4
15 40 4
15 41 1
15 42 5
15 43 5
15 44 2
15 45 2
15 46 3
15 47 2
15 48 3
15 49 5
15 50 5
15 51 5
15 52 1
15 53 4
15 54 5
15 55 2
15 56 4
15 57 5
15 58 5
15 59 1
15 60 2
15 61 4
15 62 2
15 63 2
15 64 5
15 65 3
15 66 4
15 67 4
15 68 5
15 69 4
15 70 5
15 71 2
15 72 2
15 73 3
15 74 4
15 75 2
15 76 4
15 77 4
15 78 1
15 79 2
15 80 3
15 81 4
15 82 3
15 83 1
15 84 2
15 85 3
15 86 2
15 87 2
15 88 4
15 89 3
15 90 2
15 91 3
15 92 5
15 93 1
15 94 2
15 95 5
15 96 4
15 97 2
15 98 1
15 99 4
15 100 3
16 17 2
16 18 5
16 19 4
16 20 5
16 21 4
16 22 1
16 23 4
16 24 2
16 25 2
16 26 2
16 27 4
16 28 4
16 29 2
16 30 3
16 31 4
16 32 4
16 33 1
16 34 1
16 35 5
16 36 4
16 37 2
16 38 4
16 39 4
16 40 1
16 41 3
16 42 4
16 43 3
16 44 5
16 45 3
16 46 5
16 47 5
16 48 3
16 49 3
16 50 1
16 51 2
16 52 5
16 53 5
16 54 5
16 55 2
16 56 2
16 57 3
16 58 5
16 59 1
16 60 3
16 61 1
16 62 1
16 63 4
16 64 1
16 65 3
16 66 3
16 67 2
16 68 3
16 69 3
16 70 1
16 71 3
16 72 4
16 73 2
16 74 1
16 75 3
16 76 4
16 77 2
16 78 4
16 79 2
16 80 5
16 81 1
16 82 3
16 83 4
16 84 4
16 85 4
16 86 1
16 87 4
16 88 4
16 89 5
16 90 2
16 91 1
16 92 4
16 93 5
16 94 5
16 95 4
16 96 5
16 97 4
16 98 4
16 99 5
16 100 1
17 18 1
17 19 1
17 20 2
17 21 3
17 22 2
17 23 5
17 24 1
17 25 2
17 26 5
17 27 1
17 28 3
17 29 4
17 30 5
17 31 5
17 32 4
17 33 3
17 34 1
17 35 5
17 36 2
17 37 3
17 38 4
17 39 5
17 40 4
17 41 5
17 42 3
17 43 5
17 44 5
17 45 4
17 46 3
17 47 1
17 48 5
17 49 5
17 50 2
17 51 2
17 52 5
17 53 5
17 54 5
17 55 1
17 56 4
17 57 3
17 58 1
17 59 3
17 60 5
17 61 1
17 62 5
17 63 5
17 64 2
17 65 2
17 66 5
17 67 3
17 68 3
17 69 1
17 70 5
17 71 5
17 72 5
17 73 2
17 74 3
17 75 5
17 76 1
17 77 5
17 78 2
17 79 4
17 80 3
17 81 5
17 82 1
17 83 5
17 84 3
17 85 2
17 86 5
17 87 4
17 88 3
17 89 1
17 90 4
17 91 3
17 92 1
17 93 4
17 94 2
17 95 2
17 96 2
17 97 1
17 98 4
17 99 4
17 100 3
18 19 4
18 20 1
18 21 1
18 22 1
18 23 3
18 24 3
18 25 2
18 26 4
18 27 4
18 28 2
18 29 1
18 30 4
18 31 1
18 32 5
18 33 5
18 34 3
18 35 1
18 36 3
18 37 4
18 38 5
18 39 3
18 40 3
18 41 1
18 42 1
18 43 1
18 44 4
18 45 3
18 46 3
18 47 5
18 48 4
18 49 2
18 50 2
18 51 3
18 52 2
18 53 3
18 54 5
18 55 3
18 56 1
18 57 3
18 58 1
18 59 5
18 60 3
18 61 4
18 62 4
18 63 2
18 64 3
18 65 4
18 66 4
18 67 5
18 68 3
18 69 1
18 70 3
18 71 2
18 72 4
18 73 1
18 74 5
18 75 1
18 76 1
18 77 2
18 78 1
18 79 3
18 80 4
18 81 3
18 82 2
18 83 4
18 84 4
18 85 3
18 86 1
18 87 5
18 88 2
18 89 2
18 90 3
18 91 4
18 92 3
18 93 5
18 94 5
18 95 5
18 96 3
18 97 1
18 98 2
18 99 4
18 100 5
19 20 1
19 21 1
19 22 4
19 23 5
19 24 3
19 25 5
19 26 2
19 27 2
19 28 4
19 29 1
19 30 3
19 31 2
19 32 3
19 33 1
19 34 2
19 35 5
19 36 1
19 37 3
19 38 3
19 39 5
19 40 2
19 41 2
19 42 2
19 43 5
19 44 1
19 45 1
19 46 5
19 47 5
19 48 2
19 49 3
19 50 1
19 51 2
19 52 2
19 53 4
19 54 4
19 55 3
19 56 4
19 57 4
19 58 4
19 59 3
19 60 2
19 61 1
19 62 4
19 63 3
19 64 3
19 65 3
19 66 5
19 67 3
19 68 5
19 69 3
19 70 1
19 71 1
19 72 2
19 73 1
19 74 1
19 75 3
19 76 4
19 77 3
19 78 3
19 79 4
19 80 2
19 81 4
19 82 3
19 83 1
19 84 2
19 85 2
19 86 1
19 87 5
19 88 4
19 89 1
19 90 5
19 91 2
19 92 4
19 93 1
19 94 4
19 95 4
19 96 4
19 97 3
19 98 2
19 99 3
19 100 5
20 21 5
20 22 2
20 23 1
20 24 1
20 25 2
20 26 3
20 27 5
20 28 1
20 29 4
20 30 4
20 31 3
20 32 2
20 33 5
20 34 5
20 35 1
20 36 1
20 37 3
20 38 4
20 39 2
20 40 4
20 41 4
20 42 3
20 43 1
20 44 5
20 45 5
20 46 2
20 47 4
20 48 2
20 49 1
20 50 4
20 51 3
20 52 3
20 53 3
20 54 1
20 55 4
20 56 4
20 57 2
20 58 2
20 59 3
20 60 5
20 61 5
20 62 1
20 63 4
20 64 2
20 65 5
20 66 5
20 67 2
20 68 5
20 69 3
20 70 1
20 71 4
20 72 5
20 73 4
20 74 3
20 75 3
20 76 1
20 77 3
20 78 3
20 79 1
20 80 5
20 81 3
20 82 2
20 83 4
20 84 2
20 85 1
20 86 4
20 87 3
20 88 5
20 89 1
20 90 1
20 91 1
20 92 5
20 93 5
20 94 1
20 95 5
20 96 3
20 97 5
20 98 5
20 99 4
20 100 3
21 22 3
21 23 4
21 24 2
21 25 1
21 26 1
21 27 5
21 28 1
21 29 2
21 30 5
21 31 2
21 32 4
21 33 5
21 34 5
21 35 5
21 36 3
21 37 2
21 38 1
21 39 1
21 40 1
21 41 4
21 42 4
21 43 3
21 44 4
21 45 5
21 46 2
21 47 2
21 48 1
21 49 2
21 50 2
21 51 5
21 52 1
21 53 3
21 54 1
21 55 2
21 56 5
21 57 2
21 58 3
21 59 1
21 60 3
21 61 1
21 62 4
21 63 1
21 64 3
21 65 5
21 66 4
21 67 2
21 68 1
21 69 3
21 70 4
21 71 5
21 72 5
21 73 3
21 74 4
21 75 4
21 76 2
21 77 5
21 78 1
21 79 3
21 80 3
21 81 4
21 82 3
21 83 2
21 84 4
21 85 5
21 86 1
21 87 4
21 88 2
21 89 3
21 90 2
21 91 3
21 92 2
21 93 1
21 94 3
21 95 1
21 96 2
21 97 3
21 98 1
21 99 2
21 100 5
22 23 1
22 24 5
22 25 2
22 26 1
22 27 5
22 28 3
22 29 5
22 30 3
22 31 4
22 32 2
22 33 3
22 34 5
22 35 4
22 36 1
22 37 1
22 38 5
22 39 4
22 40 4
22 41 5
22 42 3
22 43 2
22 44 3
22 45 5
22 46 1
22 47 1
22 48 3
22 49 5
22 50 2
22 51 5
22 52 3
22 53 5
22 54 4
22 55 2
22 56 5
22 57 5
22 58 5
22 59 4
22 60 5
22 61 1
22 62 4
22 63 2
22 64 3
22 65 3
22 66 1
22 67 2
22 68 1
22 69 1
22 70 5
22 71 4
22 72 4
22 73 5
22 74 5
22 75 3
22 76 3
22 77 1
22 78 5
22 79 3
22 80 2
22 81 2
22 82 4
22 83 1
22 84 3
22 85 1
22 86 3
22 87 4
22 88 1
22 89 3
22 90 5
22 91 5
22 92 5
22 93 4
22 94 4
22 95 5
22 96 4
22 97 5
22 98 1
22 99 4
22 100 5
23 24 3
23 25 2
23 26 3
23 27 3
23 28 3
23 29 2
23 30 1
23 31 3
23 32 2
23 33 5
23 34 5
23 35 3
23 36 4
23 37 5
23 38 1
23 39 4
23 40 3
23 41 5
23 42 5
23 43 2
23 44 2
23 45 2
23 46 5
23 47 3
23 48 1
23 49 2
23 50 5
23 51 1
23 52 4
23 53 4
23 54 4
23 55 5
23 56 1
23 57 3
23 58 1
23 59 5
23 60 3
23 61 3
23 62 4
23 63 1
23 64 1
23 65 5
23 66 2
23 67 3
23 68 1
23 69 2
23 70 1
23 71 3
23 72 3
23 73 2
23 74 4
23 75 3
23 76 4
23 77 5
23 78 4
23 79 3
23 80 1
23 81 2
23 82 1
23 83 4
23 84 1
23 85 4
23 86 5
23 87 4
23 88 3
23 89 3
23 90 5
23 91 3
23 92 2
23 93 1
23 94 1
23 95 5
23 96 2
23 97 4
23 98 1
23 99 5
23 100 5
24 25 2
24 26 3
24 27 1
24 28 3
24 29 4
24 30 2
24 31 3
24 32 5
24 33 5
24 34 2
24 35 2
24 36 3
24 37 5
24 38 5
24 39 5
24 40 4
24 41 2
24 42 5
24 43 4
24 44 1
24 45 5
24 46 5
24 47 1
24 48 4
24 49 5
24 50 2
24 51 3
24 52 5
24 53 4
24 54 5
24 55 5
24 56 2
24 57 5
24 58 1
24 59 3
24 60 2
24 61 4
24 62 3
24 63 5
24 64 5
24 65 3
24 66 3
24 67 3
24 68 2
24 69 1
24 70 2
24 71 1
24 72 2
24 73 2
24 74 3
24 75 2
24 76 4
24 77 3
24 78 1
24 79 2
24 80 4
24 81 3
24 82 1
24 83 2
24 84 5
24 85 3
24 86 2
24 87 3
24 88 2
24 89 4
24 90 1
24 91 5
24 92 1
24 93 2
24 94 5
24 95 5
24 96 4
24 97 2
24 98 1
24 99 1
24 100 5
25 26 1
25 27 4
25 28 1
25 29 5
25 30 1
25 31 4
25 32 4
25 33 4
25 34 3
25 35 5
25 36 2
25 37 1
25 38 3
25 39 5
25 40 3
25 41 2
25 42 3
25 43 4
25 44 3
25 45 1
25 46 4
25 47 3
25 48 4
25 49 4
25 50 4
25 51 3
25 52 1
25 53 4
25 54 1
25 55 2
25 56 4
25 57 2
25 58 1
25 59 1
25 60 2
25 61 5
25 62 1
25 63 2
25 64 3
25 65 5
25 66 2
25 67 4
25 68 3
25 69 2
25 70 4
25 71 3
25 72 2
25 73 3
25 74 5
25 75 2
25 76 3
25 77 1
25 78 4
25 79 2
25 80 3
25 81 1
25 82 1
25 83 4
25 84 5
25 85 3
25 86 4
25 87 5
25 88 5
25 89 4
25 90 3
25 91 4
25 92 5
25 93 5
25 94 5
25 95 3
25 96 4
25 97 1
25 98 1
25 99 5
25 100 3
26 27 5
26 28 3
26 29 4
26 30 2
26 31 3
26 32 4
26 33 3
26 34 3
26 35 3
26 36 5
26 37 4
26 38 5
26 39 1
26 40 1
26 41 5
26 42 3
26 43 4
26 44 5
26 45 4
26 46 2
26 47 1
26 48 1
26 49 3
26 50 2
26 51 5
26 52 4
26 53 3
26 54 3
26 55 2
26 56 3
26 57 3
26 58 2
26 59 3
26 60 1
26 61 3
26 62 2
26 63 3
26 64 3
26 65 2
26 66 3
26 67 2
26 68 4
26 69 2
26 70 5
26 71 3
26 72 5
26 73 4
26 74 2
26 75 4
26 76 3
26 77 3
26 78 2
26 79 1
26 80 3
26 81 3
26 82 1
26 83 2
26 84 4
26 85 4
26 86 3
26 87 5
26 88 2
26 89 2
26 90 3
26 91 3
26 92 3
26 93 3
26 94 3
26 95 3
26 96 4
26 97 2
26 98 1
26 99 5
26 100 4
27 28 3
27 29 4
27 30 1
27 31 3
27 32 3
27 33 4
27 34 5
27 35 5
27 36 4
27 37 2
27 38 5
27 39 2
27 40 4
27 41 1
27 42 4
27 43 4
27 44 2
27 45 2
27 46 2
27 47 1
27 48 5
27 49 3
27 50 5
27 51 4
27 52 4
27 53 4
27 54 2
27 55 4
27 56 5
27 57 1
27 58 4
27 59 4
27 60 1
27 61 3
27 62 1
27 63 1
27 64 5
27 65 1
27 66 5
27 67 4
27 68 4
27 69 4
27 70 2
27 71 1
27 72 1
27 73 4
27 74 4
27 75 1
27 76 3
27 77 2
27 78 4
27 79 4
27 80 4
27 81 5
27 82 3
27 83 2
27 84 5
27 85 2
27 86 5
27 87 2
27 88 4
27 89 4
27 90 4
27 91 5
27 92 3
27 93 3
27 94 4
27 95 5
27 96 5
27 97 1
27 98 2
27 99 2
27 100 4
28 29 2
28 30 5
28 31 4
28 32 1
28 33 4
28 34 3
28 35 4
28 36 3
28 37 3
28 38 3
28 39 3
28 40 2
28 41 3
28 42 1
28 43 4
28 44 4
28 45 1
28 46 3
28 47 1
28 48 3
28 49 4
28 50 4
28 51 4
28 52 5
28 53 2
28 54 1
28 55 2
28 56 2
28 57 1
28 58 3
28 59 5
28 60 1
28 61 1
28 62 4
28 63 3
28 64 5
28 65 5
28 66 5
28 67 5
28 68 5
28 69 4
28 70 4
28 71 4
28 72 4
28 73 5
28 74 3
28 75 2
28 76 4
28 77 1
28 78 4
28 79 3
28 80 4
28 81 3
28 82 4
28 83 3
28 84 1
28 85 3
28 86 2
28 87 2
28 88 1
28 89 5
28 90 3
28 91 1
28 92 5
28 93 5
28 94 2
28 95 2
28 96 1
28 97 5
28 98 3
28 99 3
28 100 3
29 30 1
29 31 5
29 32 2
29 33 4
29 34 3
29 35 3
29 36 5
29 37 5
29 38 4
29 39 1
29 40 5
29 41 3
29 42 5
29 43 2
29 44 1
29 45 4
29 46 3
29 47 1
29 48 1
29 49 2
29 50 1
29 51 5
29 52 2
29 53 1
29 54 3
29 55 2
29 56 1
29 57 2
29 58 4
29 59 5
29 60 4
29 61 4
29 62 4
29 63 4
29 64 4
29 65 1
29 66 4
29 67 2
29 68 4
29 69 3
29 70 5
29 71 3
29 72 1
29 73 3
29 74 5
29 75 5
29 76 2
29 77 5
29 78 1
29 79 3
29 80 1
29 81 3
29 82 4
29 83 3
29 84 3
29 85 4
29 86 5
29 87 3
29 88 3
29 89 2
29 90 1
29 91 2
29 92 1
29 93 1
29 94 2
29 95 4
29 96 1
29 97 1
29 98 4
29 99 5
29 100 4
30 31 1
30 32 1
30 33 3
30 34 4
30 35 2
30 36 3
30 37 1
30 38 5
30 39 1
30 40 3
30 41 1
30 42 3
30 43 1
30 44 3
30 45 2
30 46 2
30 47 4
30 48 3
30 49 4
30 50 5
30 51 4
30 52 4
30 53 4
30 54 1
30 55 1
30 56 5
30 57 1
30 58 5
30 59 5
30 60 4
30 61 5
30 62 2
30 63 2
30 64 4
30 65 5
30 66 2
30 67 4
30 68 1
30 69 2
30 70 3
30 71 3
30 72 4
30 73 5
30 74 4
30 75 5
30 76 3
30 77 1
30 78 4
30 79 3
30 80 3
30 81 4
30 82 3
30 83 2
30 84 2
30 85 1
30 86 1
30 87 5
30 88 1
30 89 2
30 90 3
30 91 3
30 92 5
30 93 1
30 94 1
30 95 4
30 96 3
30 97 5
30 98 1
30 99 1
30 100 1
31 32 1
31 33 3
31 34 5
31 35 1
31 36 3
31 37 5
31 38 2
31 39 5
31 40 1
31 41 3
31 42 1
31 43 5
31 44 5
31 45 5
31 46 5
31 47 5
31 48 3
31 49 5
31 50 5
31 51 5
31 52 1
31 53 1
31 54 1
31 55 4
31 56 5
31 57 1
31 58 3
31 59 2
31 60 1
31 61 2
31 62 2
31 63 2
31 64 3
31 65 3
31 66 1
31 67 4
31 68 1
31 69 4
31 70 1
31 71 1
31 72 5
31 73 3
31 74 3
31 75 5
31 76 1
31 77 5
31 78 3
31 79 3
31 80 5
31 81 4
31 82 2
31 83 2
31 84 2
31 85 1
31 86 3
31 87 2
31 88 3
31 89 4
31 90 2
31 91 4
31 92 5
31 93 2
31 94 4
31 95 2
31 96 5
31 97 2
31 98 3
31 99 1
31 100 3
32 33 3
32 34 2
32 35 4
32 36 2
32 37 1
32 38 2
32 39 1
32 40 2
32 41 3
32 42 5
32 43 1
32 44 2
32 45 1
32 46 4
32 47 1
32 48 1
32 49 1
32 50 1
32 51 2
32 52 3
32 53 4
32 54 2
32 55 4
32 56 1
32 57 5
32 58 2
32 59 2
32 60 3
32 61 4
32 62 5
32 63 3
32 64 2
32 65 1
32 66 5
32 67 1
32 68 5
32 69 4
32 70 3
32 71 3
32 72 1
32 73 1
32 74 5
32 75 4
32 76 3
32 77 5
32 78 3
32 79 4
32 80 4
32 81 5
32 82 2
32 83 2
32 84 1
32 85 1
32 86 3
32 87 1
32 88 5
32 89 1
32 90 5
32 91 1
32 92 5
32 93 3
32 94 2
32 95 5
32 96 4
32 97 3
32 98 2
32 99 4
32 100 3
33 34 5
33 35 1
33 36 2
33 37 5
33 38 3
33 39 2
33 40 1
33 41 1
33 42 1
33 43 2
33 44 1
33 45 3
33 46 5
33 47 3
33 48 5
33 49 2
33 50 1
33 51 3
33 52 1
33 53 3
33 54 5
33 55 1
33 56 2
33 57 5
33 58 2
33 59 1
33 60 4
33 61 3
33 62 2
33 63 4
33 64 1
33 65 3
33 66 5
33 67 1
33 68 3
33 69 3
33 70 4
33 71 1
33 72 1
33 73 3
33 74 2
33 75 1
33 76 4
33 77 4
33 78 2
33 79 5
33 80 4
33 81 2
33 82 5
33 83 5
33 84 3
33 85 4
33 86 4
33 87 5
33 88 2
33 89 4
33 90 3
33 91 4
33 92 2
33 93 5
33 94 4
33 95 2
33 96 1
33 97 5
33 98 5
33 99 3
33 100 1
34 35 4
34 36 1
34 37 2
34 38 1
34 39 2
34 40 3
34 41 1
34 42 3
34 43 3
34 44 4
34 45 4
34 46 1
34 47 4
34 48 4
34 49 4
34 50 4
34 51 2
34 52 1
34 53 2
34 54 4
34 55 1
34 56 5
34 57 2
34 58 4
34 59 5
34 60 5
34 61 5
34 62 2
34 63 4
34 64 4
34 65 5
34 66 1
34 67 5
34 68 1
34 69 5
34 70 3
34 71 5
34 72 4
34 73 1
34 74 4
34 75 5
34 76 1
34 77 3
34 78 2
34 79 3
34 80 5
34 81 5
34 82 1
34 83 3
34 84 4
34 85 4
34 86 4
34 87 1
34 88 2
34 89 1
34 90 4
34 91 5
34 92 3
34 93 4
34 94 1
34 95 3
34 96 3
34 97 3
34 98 2
34 99 4
34 100 2
35 36 2
35 37 3
35 38 1
35 39 4
35 40 5
35 41 1
35 42 3
35 43 1
35 44 3
35 45 5
35 46 3
35 47 2
35 48 2
35 49 1
35 50 1
35 51 2
35 52 2
35 53 2
35 54 2
35 55 5
35 56 5
35 57 3
35 58 1
35 59 3
35 60 1
35 61 4
35 62 1
35 63 2
35 64 4
35 65 2
35 66 1
35 67 1
35 68 1
35 69 1
35 70 5
35 71 2
35 72 3
35 73 1
35 74 5
35 75 1
35 76 3
35 77 4
35 78 1
35 79 3
35 80 5
35 81 3
35 82 2
35 83 5
35 84 2
35 85 5
35 86 5
35 87 1
35 88 5
35 89 4
35 90 4
35 91 2
35 92 2
35 93 5
35 94 2
35 95 3
35 96 3
35 97 4
35 98 3
35 99 3
35 100 2
36 37 5
36 38 3
36 39 1
36 40 3
36 41 1
36 42 3
36 43 4
36 44 5
36 45 5
36 46 3
36 47 4
36 48 2
36 49 4
36 50 5
36 51 1
36 52 3
36 53 5
36 54 4
36 55 3
36 56 4
36 57 4
36 58 2
36 59 3
36 60 1
36 61 1
36 62 3
36 63 5
36 64 4
36 65 5
36 66 2
36 67 4
36 68 2
36 69 3
36 70 5
36 71 3
36 72 2
36 73 1
36 74 5
36 75 3
36 76 1
36 77 1
36 78 4
36 79 5
36 80 3
36 81 5
36 82 5
36 83 5
36 84 4
36 85 1
36 86 5
36 87 3
36 88 4
36 89 1
36 90 1
36 91 1
36 92 5
36 93 5
36 94 3
36 95 2
36 96 5
36 97 3
36 98 5
36 99 3
36 100 4
37 38 1
37 39 4
37 40 5
37 41 3
37 42 4
37 43 1
37 44 3
37 45 4
37 46 4
37 47 1
37 48 3
37 49 3
37 50 5
37 51 1
37 52 1
37 53 2
37 54 4
37 55 1
37 56 2
37 57 5
37 58 2
37 59 5
37 60 1
37 61 5
37 62 2
37 63 5
37 64 5
37 65 4
37 66 2
37 67 4
37 68 5
37 69 3
37 70 1
37 71 4
37 72 4
37 73 3
37 74 1
37 75 4
37 76 5
37 77 1
37 78 5
37 79 4
37 80 1
37 81 5
37 82 1
37 83 2
37 84 1
37 85 5
37 86 1
37 87 5
37 88 3
37 89 4
37 90 5
37 91 1
37 92 1
37 93 4
37 94 4
37 95 1
37 96 1
37 97 1
37 98 4
37 99 4
37 100 2
38 39 5
38 40 5
38 41 1
38 42 1
38 43 3
38 44 3
38 45 4
38 46 2
38 47 2
38 48 5
38 49 4
38 50 4
38 51 2
38 52 2
38 53 3
38 54 1
38 55 3
38 56 1
38 57 4
38 58 5
38 59 2
38 60 1
38 61 3
38 62 1
38 63 5
38 64 2
38 65 4
38 66 4
38 67 3
38 68 1
38 69 3
38 70 4
38 71 1
38 72 2
38 73 1
38 74 2
38 75 3
38 76 2
38 77 3
38 78 5
38 79 3
38 80 3
38 81 5
38 82 2
38 83 3
38 84 1
38 85 4
38 86 3
38 87 1
38 88 3
38 89 1
38 90 2
38 91 2
38 92 1
38 93 1
38 94 4
38 95 2
38 96 3
38 97 4
38 98 1
38 99 1
38 100 2
39 40 5
39 41 2
39 42 5
39 43 3
39 44 3
39 45 4
39 46 4
39 47 4
39 48 2
39 49 5
39 50 3
39 51 2
39 52 5
39 53 4
39 54 4
39 55 2
39 56 2
39 57 3
39 58 2
39 59 3
39 60 5
39 61 3
39 62 4
39 63 3
39 64 4
39 65 5
39 66 4
39 67 5
39 68 2
39 69 5
39 70 4
39 71 1
39 72 2
39 73 3
39 74 4
39 75 1
39 76 1
39 77 3
39 78 1
39 79 2
39 80 5
39 81 1
39 82 3
39 83 2
39 84 2
39 85 2
39 86 5
39 87 4
39 88 4
39 89 4
39 90 1
39 91 1
39 92 3
39 93 4
39 94 3
39 95 1
39 96 4
39 97 3
39 98 1
39 99 3
39 100 4
40 41 2
40 42 3
40 43 2
40 44 5
40 45 4
40 46 4
40 47 4
40 48 5
40 49 4
40 50 3
40 51 5
40 52 1
40 53 2
40 54 1
40 55 2
40 56 3
40 57 5
40 58 2
40 59 5
40 60 5
40 61 3
40 62 5
40 63 3
40 64 5
40 65 5
40 66 2
40 67 4
40 68 2
40 69 5
40 70 1
40 71 3
40 72 4
40 73 1
40 74 2
40 75 2
40 76 1
40 77 5
40 78 5
40 79 5
40 80 2
40 81 2
40 82 4
40 83 4
40 84 3
40 85 5
40 86 3
40 87 5
40 88 4
40 89 5
40 90 4
40 91 2
40 92 3
40 93 2
40 94 3
40 95 1
40 96 1
40 97 4
40 98 3
40 99 5
40 100 4
41 42 5
41 43 1
41 44 5
41 45 1
41 46 4
41 47 4
41 48 4
41 49 1
41 50 1
41 51 5
41 52 1
41 53 3
41 54 1
41 55 2
41 56 1
41 57 3
41 58 1
41 59 2
41 60 3
41 61 1
41 62 5
41 63 4
41 64 2
41 65 2
41 66 1
41 67 1
41 68 3
41 69 5
41 70 2
41 71 3
41 72 3
41 73 4
41 74 4
41 75 4
41 76 4
41 77 5
41 78 2
41 79 2
41 80 3
41 81 1
41 82 4
41 83 5
41 84 5
41 85 5
41 86 5
41 87 3
41 88 1
41 89 4
41 90 3
41 91 3
41 92 1
41 93 4
41 94 3
41 95 2
41 96 1
41 97 1
41 98 2
41 99 5
41 100 2
42 43 5
42 44 5
42 45 3
42 46 5
42 47 5
42 48 1
42 49 4
42 50 4
42 51 4
42 52 4
42 53 2
42 54 3
42 55 4
42 56 1
42 57 2
42 58 5
42 59 4
42 60 3
42 61 3
42 62 1
42 63 4
42 64 5
42 65 4
42 66 4
42 67 3
42 68 4
42 69 1
42 70 3
42 71 1
42 72 5
42 73 1
42 74 2
42 75 3
42 76 2
42 77 5
42 78 4
42 79 4
42 80 5
42 81 2
42 82 2
42 83 4
42 84 3
42 85 5
42 86 3
42 87 3
42 88 2
42 89 3
42 90 3
42 91 1
42 92 4
42 93 2
42 94 5
42 95 1
42 96 4
42 97 2
42 98 4
42 99 2
42 100 1
43 44 1
43 45 3
43 46 2
43 47 3
43 48 5
43 49 5
43 50 5
43 51 2
43 52 4
43 53 3
43 54 3
43 55 5
43 56 4
43 57 5
43 58 4
43 59 2
43 60 2
43 61 1
43 62 3
43 63 5
43 64 2
43 65 3
43 66 5
43 67 1
43 68 3
43 69 2
43 70 4
43 71 2
43 72 5
43 73 2
43 74 5
43 75 3
43 76 2
43 77 4
43 78 2
43 79 2
43 80 5
43 81 2
43 82 2
43 83 2
43 84 3
43 85 1
43 86 4
43 87 1
43 88 5
43 89 5
43 90 3
43 91 4
43 92 5
43 93 5
43 94 4
43 95 2
43 96 1
43 97 4
43 98 1
43 99 2
43 100 5
44 45 5
44 46 2
44 47 1
44 48 2
44 49 5
44 50 1
44 51 1
44 52 2
44 53 3
44 54 2
44 55 1
44 56 4
44 57 3
44 58 1
44 59 4
44 60 3
44 61 5
44 62 1
44 63 5
44 64 2
44 65 4
44 66 5
44 67 3
44 68 3
44 69 2
44 70 2
44 71 4
44 72 5
44 73 4
44 74 1
44 75 2
44 76 1
44 77 4
44 78 4
44 79 4
44 80 1
44 81 1
44 82 4
44 83 1
44 84 3
44 85 4
44 86 3
44 87 2
44 88 4
44 89 2
44 90 2
44 91 4
44 92 5
44 93 1
44 94 5
44 95 3
44 96 4
44 97 5
44 98 2
44 99 4
44 100 5
45 46 1
45 47 2
45 48 2
45 49 2
45 50 2
45 51 3
45 52 5
45 53 5
45 54 4
45 55 2
45 56 5
45 57 1
45 58 2
45 59 3
45 60 1
45 61 1
45 62 4
45 63 2
45 64 1
45 65 3
45 66 5
45 67 4
45 68 1
45 69 3
45 70 2
45 71 4
45 72 5
45 73 1
45 74 5
45 75 2
45 76 1
45 77 1
45 78 2
45 79 3
45 80 5
45 81 5
45 82 2
45 83 1
45 84 2
45 85 4
45 86 2
45 87 3
45 88 5
45 89 1
45 90 4
45 91 1
45 92 5
45 93 4
45 94 3
45 95 4
45 96 4
45 97 4
45 98 2
45 99 3
45 100 3
46 47 4
46 48 4
46 49 4
46 50 3
46 51 1
46 52 5
46 53 5
46 54 3
46 55 1
46 56 5
46 57 3
46 58 1
46 59 2
46 60 3
46 61 3
46 62 1
46 63 1
46 64 4
46 65 4
46 66 2
46 67 5
46 68 1
46 69 1
46 70 4
46 71 1
46 72 4
46 73 2
46 74 4
46 75 1
46 76 4
46 77 5
46 78 3
46 79 5
46 80 5
46 81 3
46 82 3
46 83 3
46 84 2
46 85 3
46 86 5
46 87 5
46 88 2
46 89 2
46 90 5
46 91 5
46 92 5
46 93 2
46 94 4
46 95 5
46 96 2
46 97 5
46 98 1
46 99 3
46 100 5
47 48 4
47 49 5
47 50 4
47 51 4
47 52 3
47 53 1
47 54 3
47 55 5
47 56 4
47 57 1
47 58 2
47 59 2
47 60 5
47 61 5
47 62 3
47 63 5
47 64 2
47 65 3
47 66 5
47 67 2
47 68 2
47 69 5
47 70 3
47 71 1
47 72 1
47 73 3
47 74 1
47 75 2
47 76 1
47 77 4
47 78 1
47 79 2
47 80 4
47 81 1
47 82 1
47 83 2
47 84 5
47 85 1
47 86 1
47 87 1
47 88 3
47 89 5
47 90 2
47 91 5
47 92 3
47 93 1
47 94 3
47 95 2
47 96 2
47 97 4
47 98 5
47 99 3
47 100 4
48 49 5
48 50 5
48 51 4
48 52 1
48 53 5
48 54 1
48 55 1
48 56 4
48 57 3
48 58 3
48 59 1
48 60 3
48 61 1
48 62 1
48 63 1
48 64 5
48 65 1
48 66 1
48 67 1
48 68 1
48 69 2
48 70 5
48 71 1
48 72 2
48 73 5
48 74 3
48 75 3
48 76 3
48 77 1
48 78 2
48 79 3
48 80 5
48 81 5
48 82 5
48 83 2
48 84 4
48 85 1
48 86 1
48 87 3
48 88 1
48 89 4
48 90 2
48 91 1
48 92 4
48 93 5
48 94 4
48 95 4
48 96 5
48 97 5
48 98 3
48 99 1
48 100 1
49 50 1
49 51 1
49 52 1
49 53 5
49 54 2
49 55 3
49 56 5
49 57 3
49 58 4
49 59 3
49 60 1
49 61 1
49 62 1
49 63 1
49 64 5
49 65 1
49 66 4
49 67 4
49 68 4
49 69 5
49 70 1
49 71 5
49 72 4
49 73 3
49 74 4
49 75 3
49 76 1
49 77 1
49 78 4
49 79 1
49 80 5
49 81 2
49 82 5
49 83 5
49 84 1
49 85 3
49 86 4
49 87 3
49 88 3
49 89 5
49 90 4
49 91 4
49 92 2
49 93 3
49 94 1
49 95 4
49 96 4
49 97 3
49 98 5
49 99 4
49 100 5
50 51 3
50 52 2
50 53 4
50 54 2
50 55 2
50 56 4
50 57 3
50 58 2
50 59 2
50 60 1
50 61 4
50 62 4
50 63 5
50 64 4
50 65 3
50 66 2
50 67 2
50 68 2
50 69 1
50 70 4
50 71 5
50 72 3
50 73 2
50 74 2
50 75 3
50 76 5
50 77 4
50 78 5
50 79 2
50 80 1
50 81 5
50 82 5
50 83 2
50 84 4
50 85 1
50 86 1
50 87 4
50 88 5
50 89 5
50 90 1
50 91 5
50 92 3
50 93 3
50 94 2
50 95 1
50 96 5
50 97 4
50 98 2
50 99 1
50 100 3
51 52 4
51 53 1
51 54 5
51 55 3
51 56 2
51 57 3
51 58 3
51 59 1
51 60 1
51 61 5
51 62 1
51 63 5
51 64 3
51 65 4
51 66 1
51 67 5
51 68 3
51 69 4
51 70 5
51 71 4
51 72 1
51 73 2
51 74 2
51 75 3
51 76 3
51 77 5
51 78 4
51 79 2
51 80 1
51 81 5
51 82 4
51 83 5
51 84 4
51 85 4
51 86 3
51 87 4
51 88 2
51 89 2
51 90 3
51 91 2
51 92 4
51 93 2
51 94 1
51 95 2
51 96 2
51 97 2
51 98 2
51 99 5
51 100 2
52 53 4
52 54 1
52 55 3
52 56 3
52 57 3
52 58 2
52 59 3
52 60 2
52 61 2
52 62 2
52 63 4
52 64 5
52 65 4
52 66 5
52 67 1
52 68 2
52 69 2
52 70 5
52 71 1
52 72 2
52 73 3
52 74 4
52 75 1
52 76 4
52 77 4
52 78 5
52 79 4
52 80 5
52 81 5
52 82 5
52 83 3
52 84 2
52 85 5
52 86 4
52 87 4
52 88 4
52 89 3
52 90 2
52 91 4
52 92 1
52 93 3
52 94 3
52 95 4
52 96 4
52 97 2
52 98 2
52 99 3
52 100 4
53 54 3
53 55 5
53 56 5
53 57 4
53 58 2
53 59 3
53 60 4
53 61 2
53 62 3
53 63 3
53 64 2
53 65 3
53 66 2
53 67 1
53 68 2
53 69 5
53 70 2
53 71 4
53 72 2
53 73 4
53 74 5
53 75 1
53 76 1
53 77 4
53 78 2
53 79 2
53 80 4
53 81 3
53 82 5
53 83 5
53 84 3
53 85 5
53 86 4
53 87 1
53 88 2
53 89 2
53 90 3
53 91 1
53 92 3
53 93 1
53 94 3
53 95 2
53 96 4
53 97 4
53 98 5
53 99 5
53 100 1
54 55 2
54 56 2
54 57 4
54 58 4
54 59 1
54 60 3
54 61 1
54 62 3
54 63 4
54 64 2
54 65 3
54 66 1
54 67 2
54 68 4
54 69 5
54 70 5
54 71 4
54 72 1
54 73 4
54 74 3
54 75 5
54 76 4
54 77 2
54 78 2
54 79 3
54 80 2
54 81 2
54 82 1
54 83 3
54 84 2
54 85 1
54 86 2
54 87 1
54 88 2
54 89 5
54 90 4
54 91 5
54 92 1
54 93 3
54 94 2
54 95 4
54 96 4
54 97 2
54 98 2
54 99 4
54 100 5
55 56 1
55 57 1
55 58 5
55 59 1
55 60 4
55 61 4
55 62 4
55 63 3
55 64 5
55 65 4
55 66 1
55 67 2
55 68 3
55 69 3
55 70 4
55 71 5
55 72 3
55 73 1
55 74 1
55 75 3
55 76 2
55 77 1
55 78 3
55 79 2
55 80 4
55 81 1
55 82 3
55 83 3
55 84 4
55 85 3
55 86 2
55 87 1
55 88 2
55 89 4
55 90 5
55 91 2
55 92 2
55 93 1
55 94 2
55 95 1
55 96 4
55 97 4
55 98 1
55 99 4
55 100 5
56 57 3
56 58 2
56 59 3
56 60 4
56 61 3
56 62 4
56 63 1
56 64 2
56 65 5
56 66 1
56 67 4
56 68 3
56 69 1
56 70 4
56 71 4
56 72 4
56 73 3
56 74 2
56 75 3
56 76 2
56 77 1
56 78 5
56 79 1
56 80 4
56 81 4
56 82 4
56 83 1
56 84 2
56 85 3
56 86 2
56 87 5
56 88 5
56 89 2
56 90 1
56 91 5
56 92 3
56 93 5
56 94 4
56 95 4
56 96 2
56 97 4
56 98 3
56 99 1
56 100 3
57 58 2
57 59 3
57 60 5
57 61 2
57 62 2
57 63 3
57 64 1
57 65 2
57 66 3
57 67 4
57 68 1
57 69 5
57 70 4
57 71 2
57 72 4
57 73 1
57 74 4
57 75 1
57 76 5
57 77 1
57 78 5
57 79 4
57 80 5
57 81 4
57 82 2
57 83 1
57 84 5
57 85 1
57 86 3
57 87 1
57 88 2
57 89 3
57 90 3
57 91 2
57 92 3
57 93 2
57 94 2
57 95 1
57 96 3
57 97 5
57 98 5
57 99 4
57 100 3
58 59 4
58 60 5
58 61 3
58 62 5
58 63 1
58 64 1
58 65 2
58 66 2
58 67 1
58 68 2
58 69 2
58 70 5
58 71 1
58 72 5
58 73 1
58 74 2
58 75 3
58 76 2
58 77 4
58 78 2
58 79 5
58 80 4
58 81 1
58 82 4
58 83 3
58 84 2
58 85 2
58 86 4
58 87 4
58 88 5
58 89 4
58 90 5
58 91 1
58 92 5
58 93 4
58 94 4
58 95 1
58 96 3
58 97 2
58 98 4
58 99 5
58 100 3
59 60 4
59 61 1
59 62 2
59 63 3
59 64 4
59 65 2
59 66 3
59 67 3
59 68 1
59 69 4
59 70 1
59 71 2
59 72 3
59 73 3
59 74 5
59 75 5
59 76 1
59 77 2
59 78 2
59 79 5
59 80 5
59 81 3
59 82 5
59 83 4
59 84 4
59 85 5
59 86 4
59 87 3
59 88 2
59 89 3
59 90 1
59 91 3
59 92 1
59 93 3
59 94 5
59 95 3
59 96 5
59 97 1
59 98 4
59 99 4
59 100 2
60 61 1
60 62 4
60 63 3
60 64 1
60 65 3
60 66 5
60 67 5
60 68 3
60 69 1
60 70 1
60 71 4
60 72 1
60 73 2
60 74 5
60 75 2
60 76 5
60 77 1
60 78 4
60 79 3
60 80 1
60 81 1
60 82 1
60 83 2
60 84 5
60 85 4
60 86 5
60 87 5
60 88 1
60 89 3
60 90 3
60 91 2
60 92 3
60 93 1
60 94 4
60 95 3
60 96 4
60 97 1
60 98 3
60 99 5
60 100 2
61 62 2
61 63 2
61 64 4
61 65 4
61 66 2
61 67 3
61 68 2
61 69 5
61 70 4
61 71 4
61 72 5
61 73 4
61 74 2
61 75 5
61 76 1
61 77 3
61 78 2
61 79 1
61 80 3
61 81 5
61 82 4
61 83 1
61 84 3
61 85 2
61 86 4
61 87 4
61 88 5
61 89 5
61 90 4
61 91 5
61 92 1
61 93 2
61 94 4
61 95 4
61 96 3
61 97 5
61 98 2
61 99 3
61 100 1
62 63 3
62 64 1
62 65 5
62 66 5
62 67 3
62 68 5
62 69 2
62 70 3
62 71 2
62 72 5
62 73 1
62 74 5
62 75 2
62 76 1
62 77 5
62 78 2
62 79 1
62 80 5
62 81 5
62 82 3
62 83 3
62 84 4
62 85 1
62 86 3
62 87 3
62 88 1
62 89 5
62 90 3
62 91 3
62 92 1
62 93 5
62 94 1
62 95 1
62 96 5
62 97 4
62 98 2
62 99 5
62 100 5
63 64 3
63 65 2
63 66 3
63 67 2
63 68 3
63 69 5
63 70 3
63 71 1
63 72 2
63 73 5
63 74 1
63 75 1
63 76 1
63 77 2
63 78 4
63 79 5
63 80 5
63 81 3
63 82 2
63 83 2
63 84 4
63 85 2
63 86 4
63 87 5
63 88 5
63 89 1
63 90 3
63 91 4
63 92 5
63 93 3
63 94 3
63 95 2
63 96 5
63 97 1
63 98 1
63 99 1
63 100 2
64 65 5
64 66 2
64 67 2
64 68 4
64 69 5
64 70 3
64 71 3
64 72 5
64 73 4
64 74 1
64 75 3
64 76 1
64 77 5
64 78 5
64 79 1
64 80 3
64 81 4
64 82 3
64 83 2
64 84 4
64 85 1
64 86 1
64 87 5
64 88 1
64 89 5
64 90 2
64 91 5
64 92 3
64 93 1
64 94 1
64 95 1
64 96 3
64 97 4
64 98 2
64 99 3
64 100 1
65 66 5
65 67 4
65 68 2
65 69 5
65 70 1
65 71 1
65 72 1
65 73 2
65 74 2
65 75 5
65 76 2
65 77 4
65 78 3
65 79 5
65 80 5
65 81 3
65 82 3
65 83 5
65 84 3
65 85 5
65 86 5
65 87 5
65 88 1
65 89 4
65 90 1
65 91 1
65 92 3
65 93 2
65 94 5
65 95 3
65 96 4
65 97 2
65 98 5
65 99 4
65 100 1
66 67 4
66 68 1
66 69 3
66 70 4
66 71 1
66 72 5
66 73 5
66 74 2
66 75 2
66 76 4
66 77 3
66 78 2
66 79 2
66 80 5
66 81 1
66 82 3
66 83 1
66 84 1
66 85 1
66 86 5
66 87 2
66 88 4
66 89 4
66 90 3
66 91 3
66 92 4
66 93 1
66 94 2
66 95 1
66 96 5
66 97 5
66 98 3
66 99 3
66 100 2
67 68 4
67 69 2
67 70 4
67 71 4
67 72 2
67 73 5
67 74 1
67 75 3
67 76 2
67 77 2
67 78 4
67 79 3
67 80 1
67 81 1
67 82 5
67 83 5
67 84 4
67 85 1
67 86 4
67 87 4
67 88 4
67 89 1
67 90 1
67 91 1
67 92 5
67 93 2
67 94 5
67 95 1
67 96 5
67 97 5
67 98 2
67 99 3
67 100 4
68 69 1
68 70 1
68 71 1
68 72 4
68 73 1
68 74 3
68 75 4
68 76 2
68 77 3
68 78 5
68 79 3
68 80 2
68 81 1
68 82 1
68 83 4
68 84 1
68 85 1
68 86 4
68 87 4
68 88 5
68 89 1
68 90 4
68 91 4
68 92 2
68 93 5
68 94 5
68 95 1
68 96 4
68 97 4
68 98 5
68 99 5
68 100 4
69 70 5
69 71 4
69 72 1
69 73 2
69 74 5
69 75 5
69 76 3
69 77 1
69 78 2
69 79 1
69 80 1
69 81 1
69 82 3
69 83 2
69 84 2
69 85 4
69 86 4
69 87 5
69 88 1
69 89 1
69 90 4
69 91 5
69 92 2
69 93 1
69 94 2
69 95 2
69 96 5
69 97 5
69 98 2
69 99 4
69 100 5
70 71 1
70 72 4
70 73 4
70 74 3
70 75 2
70 76 1
70 77 2
70 78 4
70 79 2
70 80 5
70 81 2
70 82 2
70 83 3
70 84 2
70 85 4
70 86 1
70 87 3
70 88 3
70 89 3
70 90 5
70 91 5
70 92 1
70 93 2
70 94 4
70 95 1
70 96 2
70 97 4
70 98 5
70 99 2
70 100 1
71 72 1
71 73 5
71 74 3
71 75 5
71 76 3
71 77 3
71 78 3
71 79 5
71 80 2
71 81 4
71 82 2
71 83 2
71 84 5
71 85 5
71 86 2
71 87 2
71 88 4
71 89 4
71 90 3
71 91 5
71 92 1
71 93 5
71 94 5
71 95 4
71 96 3
71 97 1
71 98 4
71 99 1
71 100 4
72 73 1
72 74 2
72 75 4
72 76 1
72 77 1
72 78 2
72 79 3
72 80 2
72 81 3
72 82 3
72 83 2
72 84 2
72 85 3
72 86 3
72 87 1
72 88 2
72 89 4
72 90 5
72 91 1
72 92 1
72 93 5
72 94 3
72 95 2
72 96 5
72 97 3
72 98 1
72 99 5
72 100 4
73 74 1
73 75 3
73 76 4
73 77 4
73 78 2
73 79 5
73 80 1
73 81 3
73 82 4
73 83 1
73 84 1
73 85 5
73 86 5
73 87 2
73 88 5
73 89 4
73 90 5
73 91 3
73 92 5
73 93 3
73 94 2
73 95 5
73 96 5
73 97 4
73 98 5
73 99 2
73 100 4
74 75 4
74 76 2
74 77 4
74 78 3
74 79 5
74 80 5
74 81 3
74 82 5
74 83 2
74 84 1
74 85 4
74 86 5
74 87 4
74 88 2
74 89 5
74 90 3
74 91 3
74 92 4
74 93 5
74 94 5
74 95 3
74 96 2
74 97 4
74 98 3
74 99 3
74 100 3
75 76 1
75 77 5
75 78 4
75 79 4
75 80 1
75 81 4
75 82 4
75 83 2
75 84 2
75 85 2
75 86 5
75 87 3
75 88 5
75 89 3
75 90 2
75 91 4
75 92 2
75 93 5
75 94 5
75 95 3
75 96 4
75 97 2
75 98 4
75 99 5
75 100 2
76 77 2
76 78 3
76 79 3
76 80 4
76 81 5
76 82 2
76 83 3
76 84 2
76 85 2
76 86 3
76 87 2
76 88 3
76 89 1
76 90 3
76 91 5
76 92 4
76 93 4
76 94 1
76 95 4
76 96 2
76 97 3
76 98 3
76 99 1
76 100 2
77 78 1
77 79 1
77 80 2
77 81 2
77 82 3
77 83 3
77 84 2
77 85 1
77 86 2
77 87 5
77 88 1
77 89 4
77 90 2
77 91 5
77 92 3
77 93 5
77 94 3
77 95 2
77 96 2
77 97 1
77 98 4
77 99 1
77 100 3
78 79 4
78 80 2
78 81 1
78 82 4
78 83 5
78 84 1
78 85 5
78 86 2
78 87 1
78 88 2
78 89 5
78 90 4
78 91 2
78 92 4
78 93 1
78 94 3
78 95 3
78 96 2
78 97 5
78 98 3
78 99 1
78 100 1
79 80 5
79 81 4
79 82 2
79 83 1
79 84 2
79 85 1
79 86 4
79 87 3
79 88 5
79 89 2
79 90 4
79 91 3
79 92 1
79 93 4
79 94 1
79 95 1
79 96 1
79 97 1
79 98 5
79 99 3
79 100 1
80 81 5
80 82 5
80 83 1
80 84 3
80 85 1
80 86 4
80 87 1
80 88 2
80 89 2
80 90 5
80 91 5
80 92 3
80 93 1
80 94 5
80 95 2
80 96 1
80 97 4
80 98 1
80 99 3
80 100 1
81 82 3
81 83 1
81 84 2
81 85 5
81 86 4
81 87 5
81 88 1
81 89 3
81 90 2
81 91 3
81 92 1
81 93 5
81 94 2
81 95 1
81 96 5
81 97 4
81 98 3
81 99 4
81 100 5
82 83 1
82 84 4
82 85 1
82 86 4
82 87 2
82 88 3
82 89 3
82 90 3
82 91 1
82 92 5
82 93 5
82 94 4
82 95 5
82 96 3
82 97 2
82 98 2
82 99 4
82 100 3
83 84 5
83 85 4
83 86 1
83 87 4
83 88 1
83 89 4
83 90 1
83 91 5
83 92 4
83 93 5
83 94 2
83 95 3
83 96 1
83 97 2
83 98 4
83 99 1
83 100 1
84 85 3
84 86 2
84 87 1
84 88 3
84 89 3
84 90 2
84 91 1
84 92 2
84 93 5
84 94 3
84 95 2
84 96 5
84 97 1
84 98 2
84 99 2
84 100 2
85 86 4
85 87 2
85 88 3
85 89 3
85 90 2
85 91 3
85 92 3
85 93 3
85 94 2
85 95 1
85 96 4
85 97 2
85 98 4
85 99 4
85 100 2
86 87 4
86 88 3
86 89 2
86 90 3
86 91 4
86 92 1
86 93 1
86 94 4
86 95 3
86 96 5
86 97 5
86 98 4
86 99 2
86 100 4
87 88 2
87 89 5
87 90 2
87 91 2
87 92 1
87 93 2
87 94 5
87 95 3
87 96 2
87 97 2
87 98 3
87 99 5
87 100 2
88 89 5
88 90 2
88 91 2
88 92 2
88 93 3
88 94 3
88 95 3
88 96 2
88 97 2
88 98 1
88 99 5
88 100 1
89 90 1
89 91 4
89 92 4
89 93 5
89 94 4
89 95 2
89 96 2
89 97 2
89 98 1
89 99 2
89 100 1
90 91 3
90 92 2
90 93 3
90 94 3
90 95 2
90 96 1
90 97 5
90 98 2
90 99 1
90 100 2
91 92 5
91 93 3
91 94 5
91 95 1
91 96 5
91 97 2
91 98 3
91 99 4
91 100 1
92 93 5
92 94 2
92 95 5
92 96 5
92 97 5
92 98 5
92 99 5
92 100 2
93 94 1
93 95 2
93 96 3
93 97 2
93 98 1
93 99 2
93 100 2
94 95 2
94 96 5
94 97 4
94 98 1
94 99 4
94 100 4
95 96 5
95 97 4
95 98 5
95 99 4
95 100 3
96 97 4
96 98 5
96 99 5
96 100 1
97 98 4
97 99 1
97 100 1
98 99 5
98 100 5
99 100 1
